sat
(:added-eqs                   1740180
 :arith-eq-adapter            44365
 :arith-assume-eqs            2712
 :arith-bound-propagations-lp 2213675
 :arith-branch                13
 :arith-conflicts             991
 :arith-cube-calls            7
 :arith-dio-calls             1
 :arith-diseq                 2522816
 :arith-fixed-eqs             216159
 :arith-gcd-calls             30
 :arith-gomory-cuts           20
 :arith-hnf-calls             7
 :arith-lower                 2518016
 :arith-make-feasible         1143098
 :arith-max-columns           9379
 :arith-max-rows              7830
 :arith-offset-eqs            92087
 :arith-patches               34
 :arith-patches-success       11
 :arith-upper                 2860653
 :binary-propagations         3389815
 :conflicts                   1281
 :decisions                   1466073
 :del-clause                  104466
 :elim-unconstrained          77
 :final-checks                1380
 :interface-eqs               1356
 :max-memory                  188.73
 :memory                      51.82
 :minimized-lits              110
 :mk-bool-var                 149334
 :mk-clause                   119782
 :mk-clause-binary            70911
 :num-allocs                  148949259216.00
 :num-checks                  1
 :propagations                4110285
 :restarts                    11
 :rlimit-count                74315886
 :solve-eqs-elim-vars         195
 :solve-eqs-steps             22928
 :time                        164.61
 :total-time                  164.74)
